30 61 8 67 55 13 5 34 43 38 27 1 15 68 42 52 70 79 63 35 17 14 12 4 59 76 58 11 19 75 24 57 71 2 74 73 54 33 45 6 50 41 21 46 36 32 65 7 60 78 23 77 72 53 51 62 9 31 29 69 48 26 44 47 39 25 37 64 0 40 16 56 22 10 18 49 20 3 28 66